************************************************************************
file with basedata            : j60_36.bas
initial value random generator: 1653012992
************************************************************************
projects                      :  1
jobs (incl. supersource/sink ):  62
horizon                       :  315
RESOURCES
  - renewable                 :  4   R
  - nonrenewable              :  0   N
  - doubly constrained        :  0   D
************************************************************************
PROJECT INFORMATION:
pronr.  #jobs rel.date duedate tardcost  MPM-Time
    1     60      0       65       24       65
************************************************************************
PRECEDENCE RELATIONS:
jobnr.    #modes  #successors   successors
   1        1          3           2   3   4
   2        1          3           5  13  24
   3        1          3           6   8  42
   4        1          3          44  53  59
   5        1          3           9  22  29
   6        1          3           7  12  19
   7        1          3          10  16  21
   8        1          3          17  18  25
   9        1          3          15  23  28
  10        1          3          11  14  20
  11        1          2          22  45
  12        1          1          15
  13        1          2          33  36
  14        1          1          49
  15        1          1          26
  16        1          2          35  60
  17        1          1          44
  18        1          2          30  46
  19        1          1          38
  20        1          1          26
  21        1          2          30  50
  22        1          1          36
  23        1          2          32  34
  24        1          2          30  47
  25        1          2          26  27
  26        1          1          58
  27        1          3          31  50  52
  28        1          2          41  46
  29        1          2          37  40
  30        1          3          39  48  56
  31        1          3          37  53  57
  32        1          2          41  53
  33        1          3          35  41  47
  34        1          3          35  42  45
  35        1          1          57
  36        1          2          38  48
  37        1          1          51
  38        1          2          43  52
  39        1          2          43  52
  40        1          2          47  54
  41        1          2          50  55
  42        1          1          46
  43        1          1          49
  44        1          3          45  49  55
  45        1          2          48  60
  46        1          1          51
  47        1          1          58
  48        1          1          54
  49        1          1          51
  50        1          1          58
  51        1          1          61
  52        1          2          57  61
  53        1          2          54  56
  54        1          1          61
  55        1          1          56
  56        1          1          60
  57        1          1          59
  58        1          1          59
  59        1          1          62
  60        1          1          62
  61        1          1          62
  62        1          0        
************************************************************************
REQUESTS/DURATIONS:
jobnr. mode duration  R 1  R 2  R 3  R 4
------------------------------------------------------------------------
  1      1     0       0    0    0    0
  2      1     8       5    0    0    0
  3      1     6       0    0    0    3
  4      1     3       0    0    9    0
  5      1     9       0    0    7    0
  6      1     5       0    0    8    0
  7      1     9       1    0    0    0
  8      1     1       0    0    0   10
  9      1     1       0   10    0    0
 10      1     1       0    0    0    8
 11      1     3       0    6    0    0
 12      1     4       0    0    0    5
 13      1     5      10    0    0    0
 14      1     1       3    0    0    0
 15      1     9       0    5    0    0
 16      1     3       0    4    0    0
 17      1     6       0    0    2    0
 18      1     2       0    0    6    0
 19      1     5       2    0    0    0
 20      1     9       0    0    3    0
 21      1     9       0    5    0    0
 22      1     7       6    0    0    0
 23      1     4       0    0    7    0
 24      1     3       0    5    0    0
 25      1     7       0    0    3    0
 26      1     6       2    0    0    0
 27      1     1       2    0    0    0
 28      1     3       0    5    0    0
 29      1     8       0    0    3    0
 30      1     7       0    0    0    1
 31      1     1       0    0    3    0
 32      1     1       0    9    0    0
 33      1     5       0    9    0    0
 34      1     5       0    0    0    8
 35      1    10       0    2    0    0
 36      1     8       0    8    0    0
 37      1     8       7    0    0    0
 38      1     3       0    0    9    0
 39      1     7       0    0    0    9
 40      1     3       7    0    0    0
 41      1     9       0    0    5    0
 42      1    10       0    0    0    7
 43      1     5       8    0    0    0
 44      1     6       0    0    2    0
 45      1     3       0    0    0    8
 46      1     9       0    4    0    0
 47      1    10       0    9    0    0
 48      1     4       0    0    5    0
 49      1     4       0    0    0    8
 50      1     5       0   10    0    0
 51      1     3       0    3    0    0
 52      1     5       0   10    0    0
 53      1     1       0    0    0    9
 54      1     8       2    0    0    0
 55      1     2       0    0    0    5
 56      1     3       0    0    9    0
 57      1     2       1    0    0    0
 58      1     4       0    0   10    0
 59      1     8       0    0    0    2
 60      1     8       4    0    0    0
 61      1    10       0    0    1    0
 62      1     0       0    0    0    0
************************************************************************
RESOURCEAVAILABILITIES:
  R 1  R 2  R 3  R 4
   20   29   26   17
************************************************************************
